peakDumbCharging = 18500; 
Machine = anon_enum(16); 
machineSpeed = [3700,3700,3700,3700,3700,3700,3700,3700,3700,3700,3700,3700,3700,3700,3700,3700]; 
machineLoad = [3700,3700,3700,3700,3700,3700,3700,3700,3700,3700,3700,3700,3700,3700,3700,3700]; 
Car = anon_enum(36); 
demandCar = [2240,2360,9720,4760,6480,4280,2520,880,2520,14400,4840,1160,4120,7000,14320,5160,4080,4440,14560,6360,12560,13400,25720,10840,1400,6440,12400,680,5160,8160,10240,14440,21800,13120,2680,19960]; 
arrivalCar = [72,66,66,65,64,63,62,62,61,61,59,58,58,57,57,56,54,53,48,48,47,47,45,42,41,40,38,38,36,36,34,33,32,30,26,23]; 
departureCar = [74,69,70,68,68,67,65,64,63,69,62,60,60,61,62,60,57,60,66,52,51,59,56,47,43,46,43,40,40,41,39,41,40,36,28,61]; 
